\ LP format - for model browsing. Use MPS format to capture full model detail.
Minimize
  0 x[0,0] + 0 x[0,1] + 0 x[0,2] + 0 x[0,3] + 0 x[0,4] + 0 y[0,0] + 0 y[0,1]
   + 0 y[0,2] + 0 y[0,3] + 0 y[0,4] + 0 b_1[0,0] + 0 b_2[0,0] + 0 b_2[0,1]
   + 0 b_2[0,2] + 0 b_2[0,3] + 0 b_2[0,4]
Subject To
 R0: b = 1
 R1: b - b_1[0,1] = 0
Bounds
 -10000 <= x[0,0] <= 10000
 -10000 <= x[0,1] <= 10000
 -10000 <= x[0,2] <= 10000
 -10000 <= x[0,3] <= 10000
 -10000 <= x[0,4] <= 10000
 -10000 <= y[0,0] <= 10000
 -10000 <= y[0,1] <= 10000
 -10000 <= y[0,2] <= 10000
 -10000 <= y[0,3] <= 10000
 -10000 <= y[0,4] <= 10000
Binaries
 b b_1[0,0] b_1[0,1] b_2[0,0] b_2[0,1] b_2[0,2] b_2[0,3] b_2[0,4]
General Constraints
 GC0: b_1[0,0] = OR ( b_2[0,0] , b_2[0,1] , b_2[0,2] , b_2[0,3] )
 GC1: b_1[0,1] = OR ( b_2[0,1] , b_2[0,2] , b_2[0,3] , b_2[0,4] )
End
